set VV := 0 1 2 3 4 5 6 7 8 9 10 11 12 13 14 15 16 17 18 19 20 21 22 23 24 25 26 27 28 29 30 31 32 33 34 35 36 37 38 39 40 41 ;
set VS := 0 1 2 3 4 5 6 7 8 9 10 11 12 13 14 15 16 17 18 19 20 21 22 23 24 25 26 27 28 29 30 31 32 33 34 35 36 37 38 39 40 41 42 43 44 45 46 47 48 49 50 51 52 53 54 55 56 57 58 59 60 61 62 63 64 65 66 67 68 69 70 71 72 73 74 75 76 77 78 79 80 81 82 83 84 85 86 87 ;
param cv := 
0 16
1 15
2 17
3 12
4 14
5 24
6 17
7 13
8 16
9 20
10 25
11 15
12 16
13 12
14 25
15 16
16 15
17 18
18 10
19 20
20 10
21 11
22 21
23 21
24 20
25 18
26 19
27 15
28 25
29 24
30 24
31 23
32 11
33 19
34 15
35 24
36 15
37 10
38 15
39 25
40 11
41 10
;
param cs := 
0 33
1 27
2 25
3 32
4 29
5 21
6 26
7 36
8 23
9 22
10 24
11 40
12 32
13 25
14 36
15 26
16 23
17 22
18 33
19 24
20 24
21 25
22 23
23 33
24 40
25 34
26 36
27 40
28 25
29 27
30 33
31 33
32 25
33 38
34 20
35 22
36 39
37 40
38 23
39 32
40 36
41 27
42 20
43 26
44 40
45 20
46 38
47 35
48 33
49 29
50 23
51 31
52 31
53 27
54 20
55 37
56 40
57 28
58 24
59 34
60 35
61 36
62 39
63 32
64 40
65 24
66 36
67 24
68 26
69 32
70 28
71 32
72 34
73 38
74 38
75 29
76 34
77 30
78 36
79 39
80 21
81 34
82 39
83 22
84 28
85 32
86 24
87 24
;
param bv:	 0 1 2 3 4 5 6 7 8 9 10 11 12 13 14 15 16 17 18 19 20 21 22 23 24 25 26 27 28 29 30 31 32 33 34 35 36 37 38 39 40 41 := 
		0 0 0 0 0 0 0 0 0 0 0 0 0 0 0 16 0 0 0 0 18 0 0 24 0 0 0 0 0 0 0 0 0 0 0 0 23 0 0 0 0 0 0 
		1 0 0 0 0 21 0 0 0 0 0 0 16 0 25 0 0 0 0 0 0 25 0 0 25 0 0 0 0 0 0 0 0 0 0 25 10 0 0 0 13 0 0 
		2 0 0 0 0 0 0 25 16 0 12 0 0 18 0 0 0 0 0 0 0 0 0 0 0 0 0 0 0 0 10 0 0 14 0 0 0 0 0 0 0 11 0 
		3 0 0 0 0 0 0 0 0 0 0 0 0 0 15 0 0 0 0 0 0 0 0 0 0 0 0 0 0 0 0 10 19 0 0 0 0 14 0 0 0 0 0 
		4 0 0 0 0 0 0 11 0 0 0 0 0 0 0 0 0 0 0 0 0 0 0 0 13 0 25 0 0 0 0 0 0 0 0 23 0 0 0 0 0 0 0 
		5 0 0 0 0 0 0 23 0 0 0 0 0 0 0 0 23 12 0 0 0 0 0 0 0 22 0 0 0 0 0 0 0 0 0 0 18 0 0 0 0 0 0 
		6 0 0 0 0 0 0 0 0 0 0 0 0 17 11 0 0 20 0 0 0 0 0 21 0 0 0 19 0 0 0 0 0 12 0 0 0 0 0 0 0 0 0 
		7 0 0 0 0 0 0 0 0 0 0 21 0 0 0 0 0 0 0 10 0 0 0 0 0 0 0 0 0 0 0 0 0 0 25 0 0 0 0 0 0 0 0 
		8 0 0 0 0 0 0 0 0 0 0 0 0 0 0 0 24 0 0 0 14 0 18 22 0 0 0 0 0 0 0 0 0 21 0 0 0 0 0 0 0 0 0 
		9 0 0 0 0 0 0 0 0 0 0 0 0 0 0 0 0 0 0 0 0 16 0 0 0 0 0 0 0 0 0 11 17 0 0 0 0 0 0 0 0 0 0 
		10 0 0 0 0 0 0 0 0 0 0 0 0 13 0 0 0 0 0 0 0 0 0 0 0 0 0 0 0 0 0 0 0 15 0 0 0 0 0 0 0 16 0 
		11 0 0 0 0 0 0 0 0 0 0 0 0 0 0 0 0 0 0 0 0 0 0 25 0 0 10 0 0 0 0 0 0 0 0 21 0 12 0 0 11 0 0 
		12 0 0 0 0 0 0 0 0 0 0 0 0 0 0 0 0 19 0 21 0 0 0 0 0 0 0 0 0 0 21 20 0 21 15 0 0 0 0 0 15 0 0 
		13 0 0 0 0 0 0 0 0 0 0 0 0 0 0 0 0 0 0 0 0 0 0 0 0 0 0 0 0 0 10 0 0 0 0 17 0 0 0 0 0 0 0 
		14 0 0 0 0 0 0 0 0 0 0 0 0 0 0 0 0 0 0 0 0 16 0 0 0 0 0 0 0 0 0 0 0 0 0 0 0 0 0 0 0 0 0 
		15 0 0 0 0 0 0 0 0 0 0 0 0 0 0 0 0 0 0 0 19 0 0 0 0 19 20 20 0 0 0 0 0 0 0 0 0 0 0 0 0 0 0 
		16 0 0 0 0 0 0 0 0 0 0 0 0 0 0 0 0 0 0 0 0 0 0 0 0 0 0 0 0 19 0 0 0 0 0 0 0 0 0 0 0 0 0 
		17 0 0 0 0 0 0 0 0 0 0 0 0 0 0 0 0 0 0 0 0 21 0 0 0 0 0 0 0 0 0 25 18 0 0 0 0 0 0 0 0 0 0 
		18 0 0 0 0 0 0 0 0 0 0 0 0 0 0 0 0 0 0 0 0 0 0 0 22 0 0 0 0 0 0 0 0 0 0 0 0 0 0 0 0 0 0 
		19 0 0 0 0 0 0 0 0 0 0 0 0 0 0 0 0 0 0 0 0 0 0 0 21 0 0 0 0 12 0 0 0 0 0 0 11 0 0 0 0 0 0 
		20 0 0 0 0 0 0 0 0 0 0 0 0 0 0 0 0 0 0 0 0 0 0 0 14 0 0 0 0 0 0 0 0 23 0 0 0 0 0 0 0 0 0 
		21 0 0 0 0 0 0 0 0 0 0 0 0 0 0 0 0 0 0 0 0 0 0 0 0 0 0 0 0 0 12 0 0 0 0 12 0 0 0 0 18 14 0 
		22 0 0 0 0 0 0 0 0 0 0 0 0 0 0 0 0 0 0 0 0 0 0 0 0 0 0 18 0 0 15 0 0 0 0 0 0 15 0 0 0 18 0 
		23 0 0 0 0 0 0 0 0 0 0 0 0 0 0 0 0 0 0 0 0 0 0 0 0 0 20 0 0 0 0 0 0 0 0 0 0 0 0 0 0 0 0 
		24 0 0 0 0 0 0 0 0 0 0 0 0 0 0 0 0 0 0 0 0 0 0 0 0 0 0 0 0 0 0 0 0 12 0 0 0 0 25 0 0 0 13 
		25 0 0 0 0 0 0 0 0 0 0 0 0 0 0 0 0 0 0 0 0 0 0 0 0 0 0 23 0 0 0 25 0 0 0 0 0 0 0 0 0 0 0 
		26 0 0 0 0 0 0 0 0 0 0 0 0 0 0 0 0 0 0 0 0 0 0 0 0 0 0 0 0 0 0 0 0 0 0 0 0 25 0 0 0 0 0 
		27 0 0 0 0 0 0 0 0 0 0 0 0 0 0 0 0 0 0 0 0 0 0 0 0 0 0 0 0 0 0 0 0 0 0 0 0 0 15 0 0 0 19 
		28 0 0 0 0 0 0 0 0 0 0 0 0 0 0 0 0 0 0 0 0 0 0 0 0 0 0 0 0 0 0 0 0 0 0 0 0 0 12 0 0 0 10 
		29 0 0 0 0 0 0 0 0 0 0 0 0 0 0 0 0 0 0 0 0 0 0 0 0 0 0 0 0 0 0 0 0 19 0 19 0 0 0 0 0 0 0 
		30 0 0 0 0 0 0 0 0 0 0 0 0 0 0 0 0 0 0 0 0 0 0 0 0 0 0 0 0 0 0 0 19 0 0 0 0 0 0 0 0 0 0 
		31 0 0 0 0 0 0 0 0 0 0 0 0 0 0 0 0 0 0 0 0 0 0 0 0 0 0 0 0 0 0 0 0 0 0 0 0 0 15 0 0 0 0 
		32 0 0 0 0 0 0 0 0 0 0 0 0 0 0 0 0 0 0 0 0 0 0 0 0 0 0 0 0 0 0 0 0 0 0 0 0 0 0 0 0 0 0 
		33 0 0 0 0 0 0 0 0 0 0 0 0 0 0 0 0 0 0 0 0 0 0 0 0 0 0 0 0 0 0 0 0 0 0 0 23 10 0 0 0 0 0 
		34 0 0 0 0 0 0 0 0 0 0 0 0 0 0 0 0 0 0 0 0 0 0 0 0 0 0 0 0 0 0 0 0 0 0 0 0 0 0 0 0 0 0 
		35 0 0 0 0 0 0 0 0 0 0 0 0 0 0 0 0 0 0 0 0 0 0 0 0 0 0 0 0 0 0 0 0 0 0 0 0 0 0 0 0 0 0 
		36 0 0 0 0 0 0 0 0 0 0 0 0 0 0 0 0 0 0 0 0 0 0 0 0 0 0 0 0 0 0 0 0 0 0 0 0 0 0 0 15 0 0 
		37 0 0 0 0 0 0 0 0 0 0 0 0 0 0 0 0 0 0 0 0 0 0 0 0 0 0 0 0 0 0 0 0 0 0 0 0 0 0 20 0 0 0 
		38 0 0 0 0 0 0 0 0 0 0 0 0 0 0 0 0 0 0 0 0 0 0 0 0 0 0 0 0 0 0 0 0 0 0 0 0 0 0 0 0 0 0 
		39 0 0 0 0 0 0 0 0 0 0 0 0 0 0 0 0 0 0 0 0 0 0 0 0 0 0 0 0 0 0 0 0 0 0 0 0 0 0 0 0 0 0 
		40 0 0 0 0 0 0 0 0 0 0 0 0 0 0 0 0 0 0 0 0 0 0 0 0 0 0 0 0 0 0 0 0 0 0 0 0 0 0 0 0 0 0 
		41 0 0 0 0 0 0 0 0 0 0 0 0 0 0 0 0 0 0 0 0 0 0 0 0 0 0 0 0 0 0 0 0 0 0 0 0 0 0 0 0 0 0 
;
param bs:	 0 1 2 3 4 5 6 7 8 9 10 11 12 13 14 15 16 17 18 19 20 21 22 23 24 25 26 27 28 29 30 31 32 33 34 35 36 37 38 39 40 41 42 43 44 45 46 47 48 49 50 51 52 53 54 55 56 57 58 59 60 61 62 63 64 65 66 67 68 69 70 71 72 73 74 75 76 77 78 79 80 81 82 83 84 85 86 87 := 
		0 0 0 0 0 36 37 0 0 0 0 0 0 39 37 0 0 0 36 0 0 0 0 0 0 0 0 0 0 0 0 39 0 0 0 0 0 0 0 0 0 0 0 0 0 0 0 33 0 0 0 0 0 0 20 0 27 40 0 0 35 0 0 0 0 0 0 0 0 35 0 0 0 0 0 0 0 0 0 39 0 0 0 0 0 0 0 0 0 
		1 0 0 20 0 0 0 0 0 0 0 0 40 0 0 0 0 0 0 0 0 0 0 0 0 0 0 0 0 0 0 0 0 20 0 0 0 0 0 0 0 0 0 0 0 0 0 0 0 0 0 0 0 0 0 0 0 0 0 0 0 0 0 0 0 35 34 0 0 0 26 31 0 0 0 0 0 0 40 0 0 0 0 0 0 0 0 0 0 
		2 0 20 0 0 0 0 0 0 0 0 0 0 0 0 0 0 0 0 0 0 0 0 31 38 0 0 0 0 0 0 0 0 0 0 0 0 0 0 0 0 0 0 33 0 0 0 24 0 0 25 0 0 0 0 0 29 29 0 0 21 0 31 0 0 0 40 0 0 0 0 0 0 36 0 0 0 0 0 26 0 0 0 34 39 0 0 0 0 
		3 0 0 0 0 0 0 36 0 0 0 0 0 0 0 0 0 0 0 0 0 0 0 32 0 0 0 0 0 0 0 0 0 0 33 0 0 0 0 0 0 20 0 0 0 0 0 0 0 0 0 0 0 0 0 0 0 0 0 21 0 0 0 0 0 0 0 0 26 0 0 0 0 0 0 0 0 0 0 0 0 0 0 0 0 0 0 0 0 
		4 36 0 0 0 0 0 0 0 0 0 0 0 0 0 0 0 0 0 0 0 0 0 0 0 37 0 0 0 0 0 0 0 0 0 0 0 0 0 0 0 0 0 0 0 0 0 0 0 0 32 0 0 0 0 0 0 0 0 0 0 0 0 0 0 0 0 0 0 0 0 0 0 0 0 0 0 0 0 0 0 0 0 0 0 0 0 0 0 
		5 37 0 0 0 0 0 0 0 0 0 0 0 0 32 22 0 0 0 0 0 0 0 25 0 0 0 0 0 0 0 0 0 0 28 0 0 0 0 0 34 0 0 0 0 0 0 0 0 0 22 0 35 0 0 0 0 0 0 0 0 0 0 0 0 0 0 0 0 0 0 0 0 0 0 0 0 0 0 0 0 0 0 22 0 0 0 0 0 
		6 0 0 0 36 0 0 0 0 0 0 0 0 0 0 0 24 0 0 0 0 0 0 0 0 0 0 0 0 0 0 0 0 0 0 25 0 0 0 0 0 0 31 0 0 0 0 0 0 30 0 0 0 0 0 0 0 0 0 0 0 0 0 0 31 0 0 0 0 0 0 0 35 25 0 0 0 0 0 0 0 0 0 0 0 0 0 0 0 
		7 0 0 0 0 0 0 0 0 0 34 38 0 0 21 0 0 0 0 0 0 0 0 0 0 0 23 0 0 0 0 30 0 0 0 0 0 0 0 30 23 0 0 23 0 0 0 0 29 0 0 0 0 0 0 34 0 0 0 0 36 0 0 32 0 0 0 0 0 0 0 27 0 0 0 0 0 0 35 27 0 0 0 0 0 0 0 0 0 
		8 0 0 0 0 0 0 0 0 0 0 0 0 0 0 0 0 23 0 0 0 0 0 0 0 0 0 0 0 0 0 0 0 0 0 0 0 0 0 0 0 0 0 24 0 0 0 0 0 0 0 0 0 0 0 0 0 0 0 0 0 0 0 0 0 0 29 0 0 0 0 0 0 0 0 0 0 32 0 0 0 0 0 0 0 0 0 0 0 
		9 0 0 0 0 0 0 0 34 0 0 0 0 0 29 0 0 0 0 0 0 0 0 0 0 0 0 0 0 0 0 0 0 0 0 0 22 0 29 0 0 0 0 31 0 0 0 0 0 0 0 30 0 0 30 0 0 0 0 0 0 29 0 0 0 0 0 0 0 0 0 0 0 0 35 0 0 0 0 0 21 0 35 0 0 0 0 0 0 
		10 0 0 0 0 0 0 0 38 0 0 0 28 0 0 0 0 0 0 0 0 35 34 0 0 0 0 0 0 0 33 26 0 0 0 0 0 35 38 0 0 0 0 0 0 0 0 0 24 0 40 0 0 0 0 0 0 0 0 0 0 34 0 0 0 25 0 0 0 0 0 36 0 0 0 35 0 0 0 0 0 0 24 0 0 0 0 24 0 
		11 0 40 0 0 0 0 0 0 0 0 28 0 0 0 0 0 0 0 0 0 39 0 0 24 0 0 0 21 0 0 27 0 0 0 0 24 0 0 27 0 0 0 0 0 0 0 0 36 0 0 0 0 0 0 0 0 0 0 0 0 0 0 0 0 0 0 0 0 0 0 0 40 0 0 0 0 0 0 0 0 0 0 0 0 0 0 0 0 
		12 39 0 0 0 0 0 0 0 0 0 0 0 0 0 0 0 0 0 0 0 0 0 26 0 0 0 37 0 0 25 0 0 0 0 0 0 0 0 0 0 0 0 0 0 0 0 0 0 0 0 0 0 0 0 0 0 0 0 0 31 0 0 25 0 0 0 0 0 0 0 0 0 0 34 0 0 0 0 0 0 31 0 0 26 0 0 0 0 
		13 37 0 0 0 0 32 0 21 0 29 0 0 0 0 26 0 0 0 38 0 0 0 0 0 0 0 0 0 23 0 0 0 0 0 0 0 0 0 27 36 29 0 0 0 0 0 0 0 0 0 0 0 0 0 0 0 0 0 0 0 0 0 0 0 0 0 0 0 0 0 0 0 0 0 0 0 0 34 0 0 0 0 0 0 0 27 22 38 
		14 0 0 0 0 0 22 0 0 0 0 0 0 0 26 0 0 0 0 0 37 0 0 0 0 0 0 0 0 35 0 0 0 0 0 0 0 32 0 0 21 0 0 0 0 0 0 0 0 0 0 0 0 0 0 0 0 0 0 0 0 0 0 0 0 0 0 0 0 0 0 0 0 32 0 0 0 0 0 0 29 0 0 0 0 0 0 0 0 
		15 0 0 0 0 0 0 24 0 0 0 0 0 0 0 0 0 0 0 0 0 0 0 0 36 0 0 0 0 32 0 0 0 0 0 0 0 0 0 0 0 0 0 0 0 0 0 0 0 27 0 0 0 0 0 0 0 0 0 39 0 0 0 0 0 0 0 0 0 0 0 27 0 0 0 0 0 0 0 34 0 0 0 0 0 0 0 0 0 
		16 0 0 0 0 0 0 0 0 23 0 0 0 0 0 0 0 0 37 0 0 0 26 0 37 0 0 0 0 0 0 0 0 0 0 0 0 0 0 0 0 0 0 0 0 0 0 0 0 0 0 0 0 0 0 0 27 32 0 0 0 0 0 31 0 0 0 0 0 0 0 0 0 0 0 0 0 0 0 0 0 0 0 0 0 0 0 0 0 
		17 36 0 0 0 0 0 0 0 0 0 0 0 0 0 0 0 37 0 0 0 0 0 0 0 0 0 31 0 0 0 0 37 0 0 0 0 0 0 0 0 0 0 0 0 0 0 0 0 0 0 0 33 0 0 0 0 0 0 28 0 0 0 0 0 0 0 0 39 0 36 0 0 0 0 0 0 0 0 0 0 0 27 0 0 0 0 0 0 
		18 0 0 0 0 0 0 0 0 0 0 0 0 0 38 0 0 0 0 0 0 0 0 0 0 0 0 0 0 0 0 0 0 0 0 28 0 0 0 0 21 0 0 0 0 0 27 0 0 0 0 0 0 30 25 0 0 0 0 0 0 0 0 0 0 0 0 0 0 0 26 0 0 0 0 0 0 0 32 0 0 0 0 0 0 0 0 0 27 
		19 0 0 0 0 0 0 0 0 0 0 0 0 0 0 37 0 0 0 0 0 0 0 0 0 0 0 24 20 33 0 0 0 0 0 0 0 37 38 0 0 0 0 0 0 0 0 0 0 0 0 30 0 0 0 0 0 0 0 0 0 0 0 0 0 0 0 0 0 0 0 0 0 0 0 0 0 0 0 0 0 0 35 0 0 20 0 0 0 
		20 0 0 0 0 0 0 0 0 0 0 35 39 0 0 0 0 0 0 0 0 0 28 0 0 0 0 0 0 0 0 22 0 0 0 0 31 0 0 26 0 0 0 0 0 32 0 0 0 0 0 20 0 0 0 0 0 0 0 0 0 0 0 34 0 0 36 0 0 0 0 0 0 0 0 0 32 0 31 0 0 0 0 0 0 0 0 0 0 
		21 0 0 0 0 0 0 0 0 0 0 34 0 0 0 0 0 26 0 0 0 28 0 0 0 0 0 0 40 0 0 0 0 0 0 0 0 0 0 0 0 0 0 0 0 0 0 0 0 0 0 0 0 0 0 31 0 0 0 38 0 30 0 0 0 0 28 0 0 0 0 0 0 0 30 0 0 0 0 0 0 0 0 0 0 0 0 24 0 
		22 0 0 31 32 0 25 0 0 0 0 0 0 26 0 0 0 0 0 0 0 0 0 0 0 0 0 0 0 0 0 0 0 0 0 0 25 0 0 0 0 0 0 0 0 0 0 0 0 0 0 0 0 0 0 0 0 0 0 0 0 0 22 0 0 0 0 0 0 0 0 35 0 0 0 0 0 0 0 0 0 0 0 0 0 0 0 0 0 
		23 0 0 38 0 0 0 0 0 0 0 0 24 0 0 0 36 37 0 0 0 0 0 0 0 0 0 0 0 0 26 0 0 0 0 0 0 0 0 0 0 0 33 0 0 0 0 37 0 0 21 0 0 0 0 0 0 30 0 0 0 0 0 29 0 0 0 0 38 0 0 0 0 0 0 0 0 0 0 0 0 28 0 0 0 22 0 0 0 
		24 0 0 0 0 37 0 0 0 0 0 0 0 0 0 0 0 0 0 0 0 0 0 0 0 0 0 0 0 0 0 0 0 0 32 0 33 0 0 0 0 0 0 0 0 0 0 0 0 0 0 0 0 0 0 0 0 0 0 0 0 0 0 0 0 0 0 0 0 0 0 0 0 0 0 0 0 0 0 0 0 0 0 0 0 0 0 0 0 
		25 0 0 0 0 0 0 0 23 0 0 0 0 0 0 0 0 0 0 0 0 0 0 0 0 0 0 0 0 0 0 0 0 0 0 0 0 34 0 0 0 0 38 0 0 0 0 30 0 38 0 0 0 0 0 0 0 0 0 0 27 0 0 0 0 0 0 0 0 0 0 0 0 0 0 0 0 0 0 0 31 0 40 0 0 0 0 0 0 
		26 0 0 0 0 0 0 0 0 0 0 0 0 37 0 0 0 0 31 0 24 0 0 0 0 0 0 0 0 34 0 0 0 0 0 0 0 0 0 26 0 0 0 0 0 35 0 0 0 0 0 0 39 0 0 0 0 0 26 0 0 0 0 0 0 0 39 0 0 0 40 0 0 0 23 0 0 0 37 20 0 0 0 0 0 0 0 0 0 
		27 0 0 0 0 0 0 0 0 0 0 0 21 0 0 0 0 0 0 0 20 0 40 0 0 0 0 0 0 0 0 0 0 0 0 0 0 27 0 0 0 0 0 0 0 0 0 0 38 0 0 32 0 0 0 0 0 0 0 0 25 0 0 0 0 0 0 0 0 0 0 0 0 0 0 0 0 0 0 0 0 0 0 0 0 0 0 0 0 
		28 0 0 0 0 0 0 0 0 0 0 0 0 0 23 35 32 0 0 0 33 0 0 0 0 0 0 34 0 0 0 0 0 0 0 0 0 0 0 34 34 21 0 0 0 0 0 0 24 0 0 27 0 38 0 0 0 0 0 0 0 0 0 0 0 0 0 0 0 0 0 23 0 0 0 0 23 0 0 0 0 0 35 0 0 0 0 0 34 
		29 0 0 0 0 0 0 0 0 0 0 33 0 25 0 0 0 0 0 0 0 0 0 0 26 0 0 0 0 0 0 0 0 0 0 0 0 0 0 0 0 0 0 0 0 0 0 0 0 0 0 0 0 0 0 32 0 0 0 0 31 37 0 0 0 0 0 0 0 21 0 0 0 29 0 0 0 39 0 0 0 0 0 0 0 0 0 0 0 
		30 39 0 0 0 0 0 0 30 0 0 26 27 0 0 0 0 0 0 0 0 22 0 0 0 0 0 0 0 0 0 0 0 0 0 0 0 0 0 0 0 0 0 0 0 0 0 0 0 0 22 0 0 0 0 20 0 0 0 0 0 0 0 0 0 0 0 0 0 29 0 0 0 0 0 23 0 0 0 0 0 0 0 0 0 0 0 0 0 
		31 0 0 0 0 0 0 0 0 0 0 0 0 0 0 0 0 0 37 0 0 0 0 0 0 0 0 0 0 0 0 0 0 0 0 0 0 0 0 22 0 0 0 0 0 0 0 0 0 0 0 0 33 0 0 0 0 0 0 0 0 0 0 25 0 0 0 0 0 0 35 0 0 0 0 0 0 0 0 0 0 30 0 0 0 0 0 0 0 
		32 0 20 0 0 0 0 0 0 0 0 0 0 0 0 0 0 0 0 0 0 0 0 0 0 0 0 0 0 0 0 0 0 0 0 0 0 0 0 0 0 0 0 0 0 28 0 25 0 0 0 0 0 0 0 0 0 0 0 0 0 0 0 0 30 0 0 0 0 0 0 0 0 0 31 0 0 0 0 0 0 0 0 20 0 0 0 0 0 
		33 0 0 0 33 0 28 0 0 0 0 0 0 0 0 0 0 0 0 0 0 0 0 0 0 32 0 0 0 0 0 0 0 0 0 0 0 0 0 31 0 0 0 0 0 0 22 0 0 0 0 0 25 0 0 0 0 0 0 0 0 0 0 0 0 0 0 0 0 0 0 0 0 0 0 0 0 0 0 0 0 37 0 0 0 0 34 0 0 
		34 0 0 0 0 0 0 25 0 0 0 0 0 0 0 0 0 0 0 28 0 0 0 0 0 0 0 0 0 0 0 0 0 0 0 0 0 23 0 32 0 0 0 0 0 0 0 0 0 0 39 0 0 0 0 0 32 0 0 40 0 0 0 0 22 0 0 0 0 0 0 21 0 0 0 0 0 0 0 0 0 0 0 0 0 0 0 0 0 
		35 0 0 0 0 0 0 0 0 0 22 0 24 0 0 0 0 0 0 0 0 31 0 25 0 33 0 0 0 0 0 0 0 0 0 0 0 0 0 0 0 0 0 0 0 0 0 0 38 0 0 0 0 0 0 0 0 20 20 0 0 0 0 0 26 0 0 0 29 0 0 39 0 0 0 0 0 0 0 0 0 0 0 21 0 34 0 22 0 
		36 0 0 0 0 0 0 0 0 0 0 35 0 0 0 32 0 0 0 0 37 0 0 0 0 0 34 0 27 0 0 0 0 0 0 23 0 0 0 0 39 0 0 23 0 0 0 0 25 0 0 0 0 0 0 0 0 0 0 0 0 0 0 0 0 0 0 0 0 0 0 39 0 0 0 20 0 0 0 0 0 0 0 0 0 20 0 0 0 
		37 0 0 0 0 0 0 0 0 0 29 38 0 0 0 0 0 0 0 0 38 0 0 0 0 0 0 0 0 0 0 0 0 0 0 0 0 0 0 0 0 0 0 0 0 0 0 0 0 0 0 0 0 36 0 24 0 0 0 0 0 0 0 0 0 0 0 0 0 0 0 0 0 0 0 0 39 0 0 25 0 0 0 0 0 0 0 0 0 
		38 0 0 0 0 0 0 0 30 0 0 0 27 0 27 0 0 0 0 0 0 26 0 0 0 0 0 26 0 34 0 0 22 0 31 32 0 0 0 0 33 0 0 0 0 0 0 0 0 0 0 0 35 0 0 0 0 32 0 0 0 0 0 0 0 28 0 0 0 33 0 0 0 0 0 0 0 0 40 0 0 33 0 0 0 0 0 0 0 
		39 0 0 0 0 0 34 0 23 0 0 0 0 0 36 21 0 0 0 21 0 0 0 0 0 0 0 0 0 34 0 0 0 0 0 0 0 39 0 33 0 32 0 0 0 0 0 0 34 0 0 0 0 0 0 0 0 0 0 0 0 0 0 0 0 0 0 0 0 0 40 0 0 0 0 0 0 0 0 0 0 0 0 0 26 24 0 0 20 
		40 0 0 0 20 0 0 0 0 0 0 0 0 0 29 0 0 0 0 0 0 0 0 0 0 0 0 0 0 21 0 0 0 0 0 0 0 0 0 0 32 0 0 0 0 0 0 0 0 0 0 0 0 21 0 0 0 0 0 0 0 0 0 0 0 0 0 0 0 0 0 0 0 0 0 0 0 0 0 0 0 0 0 0 0 0 0 0 0 
		41 0 0 0 0 0 0 31 0 0 0 0 0 0 0 0 0 0 0 0 0 0 0 0 33 0 38 0 0 0 0 0 0 0 0 0 0 0 0 0 0 0 0 0 35 0 0 0 25 0 0 0 0 0 0 0 0 0 0 0 0 0 22 0 31 0 0 0 0 0 0 0 0 0 0 0 0 0 0 0 0 0 40 22 0 0 0 0 0 
		42 0 0 33 0 0 0 0 23 24 31 0 0 0 0 0 0 0 0 0 0 0 0 0 0 0 0 0 0 0 0 0 0 0 0 0 0 23 0 0 0 0 0 0 0 21 0 0 0 0 0 0 0 0 0 27 0 0 0 0 0 37 0 0 0 0 0 0 0 0 0 0 0 0 0 0 0 0 0 0 0 0 0 0 0 0 0 35 0 
		43 0 0 0 0 0 0 0 0 0 0 0 0 0 0 0 0 0 0 0 0 0 0 0 0 0 0 0 0 0 0 0 0 0 0 0 0 0 0 0 0 0 35 0 0 0 0 0 0 0 0 0 33 0 0 0 0 0 0 0 0 0 0 0 0 0 0 21 0 0 0 0 0 0 0 0 21 0 0 39 0 0 0 0 26 0 0 0 0 
		44 0 0 0 0 0 0 0 0 0 0 0 0 0 0 0 0 0 0 0 0 32 0 0 0 0 0 35 0 0 0 0 0 28 0 0 0 0 0 0 0 0 0 21 0 0 0 0 0 36 0 0 0 0 0 0 0 0 0 0 0 28 0 0 0 0 22 0 0 0 0 0 0 0 0 0 0 0 0 0 0 0 0 0 0 0 0 0 0 
		45 0 0 0 0 0 0 0 0 0 0 0 0 0 0 0 0 0 0 27 0 0 0 0 0 0 0 0 0 0 0 0 0 0 22 0 0 0 0 0 0 0 0 0 0 0 0 0 0 0 0 0 0 0 0 0 0 0 0 0 0 0 0 0 0 0 0 0 0 0 0 0 0 0 0 0 0 0 0 0 0 0 0 0 0 0 30 0 0 
		46 33 0 24 0 0 0 0 0 0 0 0 0 0 0 0 0 0 0 0 0 0 0 0 37 0 30 0 0 0 0 0 0 25 0 0 0 0 0 0 0 0 0 0 0 0 0 0 0 0 0 39 0 0 0 0 27 27 0 0 0 0 0 0 0 25 0 0 0 0 0 0 0 24 0 0 33 0 0 31 0 0 26 0 0 0 0 0 0 
		47 0 0 0 0 0 0 0 29 0 0 24 36 0 0 0 0 0 0 0 0 0 0 0 0 0 0 0 38 24 0 0 0 0 0 0 38 25 0 0 34 0 25 0 0 0 0 0 0 0 0 0 0 38 0 0 0 0 0 0 0 0 0 0 0 0 0 0 0 0 0 0 0 0 0 0 0 0 0 0 0 0 0 0 0 0 0 0 0 
		48 0 0 0 0 0 0 30 0 0 0 0 0 0 0 0 27 0 0 0 0 0 0 0 0 0 38 0 0 0 0 0 0 0 0 0 0 0 0 0 0 0 0 0 0 36 0 0 0 0 0 0 0 29 0 35 0 0 0 0 0 33 29 0 0 0 0 0 0 0 0 0 0 0 0 0 0 0 0 0 0 0 0 0 0 0 0 0 0 
		49 0 0 25 0 32 22 0 0 0 0 40 0 0 0 0 0 0 0 0 0 0 0 0 21 0 0 0 0 0 0 22 0 0 0 39 0 0 0 0 0 0 0 0 0 0 0 0 0 0 0 0 39 0 0 0 0 0 0 0 0 0 0 0 0 29 0 0 0 30 0 0 0 0 0 0 0 0 0 0 0 0 0 0 0 0 0 0 0 
		50 0 0 0 0 0 0 0 0 0 30 0 0 0 0 0 0 0 0 0 30 20 0 0 0 0 0 0 32 27 0 0 0 0 0 0 0 0 0 0 0 0 0 0 0 0 0 39 0 0 0 0 0 0 0 0 0 0 0 0 26 0 0 0 0 0 0 0 0 0 0 0 25 0 0 0 0 0 0 0 0 0 0 0 0 25 0 0 0 
		51 0 0 0 0 0 35 0 0 0 0 0 0 0 0 0 0 0 33 0 0 0 0 0 0 0 0 39 0 0 0 0 33 0 25 0 0 0 0 35 0 0 0 0 33 0 0 0 0 0 39 0 0 0 0 0 0 0 0 0 0 0 0 0 24 0 0 0 24 0 0 0 0 0 0 0 0 0 0 0 0 23 0 0 0 0 0 0 0 
		52 0 0 0 0 0 0 0 0 0 0 0 0 0 0 0 0 0 0 30 0 0 0 0 0 0 0 0 0 38 0 0 0 0 0 0 0 0 36 0 0 21 0 0 0 0 0 0 38 29 0 0 0 0 0 0 0 0 0 0 0 0 0 0 0 0 0 0 0 0 0 0 0 0 0 0 0 0 0 0 32 0 0 0 0 0 28 23 0 
		53 20 0 0 0 0 0 0 0 0 30 0 0 0 0 0 0 0 0 25 0 0 0 0 0 0 0 0 0 0 0 0 0 0 0 0 0 0 0 0 0 0 0 0 0 0 0 0 0 0 0 0 0 0 0 0 0 0 0 0 0 0 0 0 0 0 0 0 0 0 0 34 0 0 0 35 0 0 0 0 0 0 0 0 0 0 30 0 0 
		54 0 0 0 0 0 0 0 34 0 0 0 0 0 0 0 0 0 0 0 0 0 31 0 0 0 0 0 0 0 32 20 0 0 0 0 0 0 24 0 0 0 0 27 0 0 0 0 0 35 0 0 0 0 0 0 0 0 0 0 0 33 0 0 0 0 0 0 0 0 0 0 0 0 0 0 0 0 0 0 0 0 38 0 0 0 0 0 0 
		55 27 0 29 0 0 0 0 0 0 0 0 0 0 0 0 0 27 0 0 0 0 0 0 0 0 0 0 0 0 0 0 0 0 0 32 0 0 0 0 0 0 0 0 0 0 0 27 0 0 0 0 0 0 0 0 0 0 0 0 0 0 0 0 0 0 0 0 0 0 0 0 0 0 0 0 0 0 0 0 0 0 0 0 26 0 0 0 0 
		56 40 0 29 0 0 0 0 0 0 0 0 0 0 0 0 0 32 0 0 0 0 0 0 30 0 0 0 0 0 0 0 0 0 0 0 20 0 0 32 0 0 0 0 0 0 0 27 0 0 0 0 0 0 0 0 0 0 0 33 0 0 0 0 0 0 0 0 39 0 0 0 0 0 27 0 39 0 0 0 0 0 0 0 25 0 0 0 0 
		57 0 0 0 0 0 0 0 0 0 0 0 0 0 0 0 0 0 0 0 0 0 0 0 0 0 0 26 0 0 0 0 0 0 0 0 20 0 0 0 0 0 0 0 0 0 0 0 0 0 0 0 0 0 0 0 0 0 0 0 0 0 0 0 0 0 0 0 30 0 0 0 0 0 0 0 0 0 26 0 0 0 26 0 0 0 0 0 0 
		58 0 0 0 21 0 0 0 0 0 0 0 0 0 0 0 39 0 28 0 0 0 38 0 0 0 0 0 0 0 0 0 0 0 0 40 0 0 0 0 0 0 0 0 0 0 0 0 0 0 0 0 0 0 0 0 0 33 0 0 0 0 0 22 0 0 0 0 0 0 0 30 0 37 0 0 0 0 0 0 0 0 37 0 0 0 0 0 0 
		59 35 0 21 0 0 0 0 36 0 0 0 0 31 0 0 0 0 0 0 0 0 0 0 0 0 27 0 25 0 31 0 0 0 0 0 0 0 0 0 0 0 0 0 0 0 0 0 0 0 0 26 0 0 0 0 0 0 0 0 0 0 0 0 26 0 0 0 0 0 0 0 0 0 0 0 0 0 0 0 0 0 0 0 23 0 0 0 0 
		60 0 0 0 0 0 0 0 0 0 29 34 0 0 0 0 0 0 0 0 0 0 30 0 0 0 0 0 0 0 37 0 0 0 0 0 0 0 0 0 0 0 0 37 0 28 0 0 0 33 0 0 0 0 0 33 0 0 0 0 0 0 0 0 0 0 0 0 0 0 0 0 0 0 0 0 0 0 0 0 0 0 0 0 0 0 0 0 0 
		61 0 0 31 0 0 0 0 0 0 0 0 0 0 0 0 0 0 0 0 0 0 0 22 0 0 0 0 0 0 0 0 0 0 0 0 0 0 0 0 0 0 22 0 0 0 0 0 0 29 0 0 0 0 0 0 0 0 0 0 0 0 0 0 0 0 0 36 0 0 0 0 0 0 0 0 0 0 0 0 0 25 0 0 0 0 0 0 0 
		62 0 0 0 0 0 0 0 32 0 0 0 0 25 0 0 0 31 0 0 0 34 0 0 29 0 0 0 0 0 0 0 25 0 0 0 0 0 0 0 0 0 0 0 0 0 0 0 0 0 0 0 0 0 0 0 0 0 0 22 0 0 0 0 0 0 39 37 0 0 0 0 0 29 0 0 0 0 33 38 0 0 0 0 23 0 39 0 0 
		63 0 0 0 0 0 0 31 0 0 0 0 0 0 0 0 0 0 0 0 0 0 0 0 0 0 0 0 0 0 0 0 0 30 0 22 26 0 0 0 0 0 31 0 0 0 0 0 0 0 0 0 24 0 0 0 0 0 0 0 26 0 0 0 0 0 0 0 0 23 0 0 0 0 0 0 0 0 0 0 0 0 24 0 0 0 0 0 0 
		64 0 35 0 0 0 0 0 0 0 0 25 0 0 0 0 0 0 0 0 0 0 0 0 0 0 0 0 0 0 0 0 0 0 0 0 0 0 0 28 0 0 0 0 0 0 0 25 0 0 29 0 0 0 0 0 0 0 0 0 0 0 0 0 0 0 0 0 0 0 0 0 0 0 40 0 0 0 0 0 0 0 27 25 0 0 0 0 0 
		65 0 34 40 0 0 0 0 0 29 0 0 0 0 0 0 0 0 0 0 0 36 28 0 0 0 0 39 0 0 0 0 0 0 0 0 0 0 0 0 0 0 0 0 0 22 0 0 0 0 0 0 0 0 0 0 0 0 0 0 0 0 0 39 0 0 0 0 0 30 0 0 0 0 0 0 0 0 0 0 0 21 0 0 0 0 0 0 0 
		66 0 0 0 0 0 0 0 0 0 0 0 0 0 0 0 0 0 0 0 0 0 0 0 0 0 0 0 0 0 0 0 0 0 0 0 0 0 0 0 0 0 0 0 21 0 0 0 0 0 0 0 0 0 0 0 0 0 0 0 0 0 36 37 0 0 0 0 0 0 0 0 0 0 0 0 0 0 0 0 0 0 0 26 0 0 0 0 0 
		67 0 0 0 26 0 0 0 0 0 0 0 0 0 0 0 0 0 39 0 0 0 0 0 38 0 0 0 0 0 0 0 0 0 0 0 29 0 0 0 0 0 0 0 0 0 0 0 0 0 0 0 24 0 0 0 0 39 30 0 0 0 0 0 0 0 0 0 0 0 0 0 0 0 0 0 0 0 0 0 0 0 0 0 0 0 0 0 0 
		68 35 0 0 0 0 0 0 0 0 0 0 0 0 0 0 0 0 0 0 0 0 0 0 0 0 0 0 0 0 21 29 0 0 0 0 0 0 0 33 0 0 0 0 0 0 0 0 0 0 30 0 0 0 0 0 0 0 0 0 0 0 0 0 23 0 30 0 0 0 33 0 0 0 0 21 0 0 0 0 0 36 0 0 0 0 0 0 0 
		69 0 26 0 0 0 0 0 0 0 0 0 0 0 0 0 0 0 36 26 0 0 0 0 0 0 0 40 0 0 0 0 35 0 0 0 0 0 0 0 40 0 0 0 0 0 0 0 0 0 0 0 0 0 0 0 0 0 0 0 0 0 0 0 0 0 0 0 0 33 0 0 0 0 0 0 0 0 0 0 0 0 0 0 0 0 25 0 0 
		70 0 31 0 0 0 0 0 27 0 0 36 0 0 0 0 27 0 0 0 0 0 0 35 0 0 0 0 0 23 0 0 0 0 0 21 39 39 0 0 0 0 0 0 0 0 0 0 0 0 0 0 0 0 34 0 0 0 0 30 0 0 0 0 0 0 0 0 0 0 0 0 0 0 0 0 0 0 0 0 0 0 0 0 0 0 0 0 29 
		71 0 0 0 0 0 0 35 0 0 0 0 40 0 0 0 0 0 0 0 0 0 0 0 0 0 0 0 0 0 0 0 0 0 0 0 0 0 0 0 0 0 0 0 0 0 0 0 0 0 0 25 0 0 0 0 0 0 0 0 0 0 0 0 0 0 0 0 0 0 0 0 0 29 0 22 0 0 0 0 0 0 0 0 0 0 0 35 0 
		72 0 0 36 0 0 0 25 0 0 0 0 0 0 0 32 0 0 0 0 0 0 0 0 0 0 0 0 0 0 29 0 0 0 0 0 0 0 0 0 0 0 0 0 0 0 0 24 0 0 0 0 0 0 0 0 0 0 0 37 0 0 0 29 0 0 0 0 0 0 0 0 29 0 0 0 0 0 0 0 0 0 0 0 0 0 0 0 0 
		73 0 0 0 0 0 0 0 0 0 35 0 0 34 0 0 0 0 0 0 0 0 30 0 0 0 0 23 0 0 0 0 0 31 0 0 0 0 0 0 0 0 0 0 0 0 0 0 0 0 0 0 0 0 0 0 0 27 0 0 0 0 0 0 0 40 0 0 0 0 0 0 0 0 0 0 34 0 0 0 0 0 24 0 27 0 0 0 0 
		74 0 0 0 0 0 0 0 0 0 0 35 0 0 0 0 0 0 0 0 0 0 0 0 0 0 0 0 0 0 0 23 0 0 0 0 0 20 0 0 0 0 0 0 0 0 0 0 0 0 0 0 0 0 35 0 0 0 0 0 0 0 0 0 0 0 0 0 0 21 0 0 22 0 0 0 21 26 0 0 0 0 0 0 0 0 0 0 0 
		75 0 0 0 0 0 0 0 0 0 0 0 0 0 0 0 0 0 0 0 0 32 0 0 0 0 0 0 0 23 0 0 0 0 0 0 0 0 39 0 0 0 0 0 21 0 0 33 0 0 0 0 0 0 0 0 0 39 0 0 0 0 0 0 0 0 0 0 0 0 0 0 0 0 34 21 0 0 0 0 0 0 0 0 0 0 0 0 0 
		76 0 0 0 0 0 0 0 0 32 0 0 0 0 0 0 0 0 0 0 0 0 0 0 0 0 0 0 0 0 39 0 0 0 0 0 0 0 0 0 0 0 0 0 0 0 0 0 0 0 0 0 0 0 0 0 0 0 0 0 0 0 0 0 0 0 0 0 0 0 0 0 0 0 0 26 0 0 0 0 21 0 0 31 0 0 0 0 0 
		77 0 40 0 0 0 0 0 35 0 0 0 0 0 34 0 0 0 0 32 0 31 0 0 0 0 0 37 0 0 0 0 0 0 0 0 0 0 0 40 0 0 0 0 0 0 0 0 0 0 0 0 0 0 0 0 0 0 26 0 0 0 0 33 0 0 0 0 0 0 0 0 0 0 0 0 0 0 0 0 0 0 0 0 0 0 0 0 0 
		78 39 0 26 0 0 0 0 27 0 0 0 0 0 0 0 34 0 0 0 0 0 0 0 0 0 0 20 0 0 0 0 0 0 0 0 0 0 25 0 0 0 0 0 39 0 0 31 0 0 0 0 0 0 0 0 0 0 0 0 0 0 0 38 0 0 0 0 0 0 0 0 0 0 0 0 0 0 0 0 0 0 0 0 30 0 0 0 0 
		79 0 0 0 0 0 0 0 0 0 21 0 0 0 0 29 0 0 0 0 0 0 0 0 0 0 31 0 0 0 0 0 0 0 0 0 0 0 0 0 0 0 0 0 0 0 0 0 0 0 0 0 0 32 0 0 0 0 0 0 0 0 0 0 0 0 0 0 0 0 0 0 0 0 0 0 0 21 0 0 0 29 0 0 0 0 0 0 0 
		80 0 0 0 0 0 0 0 0 0 0 0 0 31 0 0 0 0 0 0 0 0 0 0 28 0 0 0 0 0 0 0 30 0 37 0 0 0 0 33 0 0 0 0 0 0 0 0 0 0 0 0 23 0 0 0 0 0 0 0 0 0 25 0 0 0 21 0 0 36 0 0 0 0 0 0 0 0 0 0 29 0 0 0 0 0 0 0 0 
		81 0 0 0 0 0 0 0 0 0 35 24 0 0 0 0 0 0 27 0 35 0 0 0 0 0 40 0 0 35 0 0 0 0 0 0 0 0 0 0 0 0 40 0 0 0 0 26 0 0 0 0 0 0 0 38 0 0 26 37 0 0 0 0 24 27 0 0 0 0 0 0 0 0 24 0 0 0 0 0 0 0 0 24 39 0 0 34 0 
		82 0 0 34 0 0 22 0 0 0 0 0 0 0 0 0 0 0 0 0 0 0 0 0 0 0 0 0 0 0 0 0 0 20 0 0 21 0 0 0 0 0 22 0 0 0 0 0 0 0 0 0 0 0 0 0 0 0 0 0 0 0 0 0 0 25 0 26 0 0 0 0 0 0 0 0 0 31 0 0 0 0 24 0 28 0 0 0 0 
		83 0 0 39 0 0 0 0 0 0 0 0 0 26 0 0 0 0 0 0 0 0 0 0 0 0 0 0 0 0 0 0 0 0 0 0 0 0 0 0 26 0 0 0 26 0 0 0 0 0 0 0 0 0 0 0 26 25 0 0 23 0 0 23 0 0 0 0 0 0 0 0 0 0 27 0 0 0 0 30 0 0 39 28 0 0 0 0 0 
		84 0 0 0 0 0 0 0 0 0 0 0 0 0 0 0 0 0 0 0 20 0 0 0 22 0 0 0 0 0 0 0 0 0 0 0 34 20 0 0 24 0 0 0 0 0 0 0 0 0 0 25 0 0 0 0 0 0 0 0 0 0 0 0 0 0 0 0 0 0 0 0 0 0 0 0 0 0 0 0 0 0 0 0 0 0 0 0 0 
		85 0 0 0 0 0 0 0 0 0 0 0 0 0 27 0 0 0 0 0 0 0 0 0 0 0 0 0 0 0 0 0 0 0 34 0 0 0 0 0 0 0 0 0 0 0 30 0 0 0 0 0 0 28 30 0 0 0 0 0 0 0 0 39 0 0 0 0 0 0 25 0 0 0 0 0 0 0 0 0 0 0 0 0 0 0 0 0 0 
		86 0 0 0 0 0 0 0 0 0 0 24 0 0 22 0 0 0 0 0 0 0 24 0 0 0 0 0 0 0 0 0 0 0 0 0 22 0 0 0 0 0 0 35 0 0 0 0 0 0 0 0 0 23 0 0 0 0 0 0 0 0 0 0 0 0 0 0 0 0 0 0 35 0 0 0 0 0 0 0 0 0 34 0 0 0 0 0 0 
		87 0 0 0 0 0 0 0 0 0 0 0 0 0 38 0 0 0 0 27 0 0 0 0 0 0 0 0 0 34 0 0 0 0 0 0 0 0 0 0 20 0 0 0 0 0 0 0 0 0 0 0 0 0 0 0 0 0 0 0 0 0 0 0 0 0 0 0 0 0 0 29 0 0 0 0 0 0 0 0 0 0 0 0 0 0 0 0 0 
;
